
Gurobi 11.0.3 (linux64) logging started Sun Jun  1 10:41:28 2025

Set parameter LogFile to value "/home/yihong/Coding/SFLA+ED/PD_results_bigM100000_thread4/case24_ieee_rts_theta0.25_epsilon0.03_gurobi_seed80000_num_gen38_N_WDR80_load_scaling_factor1_CVAR_T14.txt"
Set parameter TimeLimit to value 3600
Gurobi Optimizer version 11.0.3 build v11.0.3rc0 (linux64 - "Ubuntu 20.04.6 LTS")

CPU model: AMD EPYC 7532 32-Core Processor, instruction set [SSE2|AVX|AVX2]
Thread count: 64 physical cores, 128 logical processors, using up to 4 threads

Optimize a model with 213892 rows, 1145 columns and 10704848 nonzeros
Model fingerprint: 0x418e0fb3
Model has 532 quadratic objective terms
Coefficient statistics:
  Matrix range     [3e-06, 6e+01]
  Objective range  [2e+01, 6e+01]
  QObjective range [4e-03, 2e-02]
  Bounds range     [0e+00, 0e+00]
  RHS range        [3e-02, 9e+02]
Presolve removed 57372 rows and 0 columns
Presolve time: 2.50s
Presolved: 156520 rows, 1145 columns, 5515636 nonzeros
Presolved model has 532 quadratic objective terms
Ordering time: 0.91s

Barrier statistics:
 Dense cols : 1089
 Free vars  : 532
 AA' NZ     : 5.881e+06
 Factor NZ  : 7.770e+06 (roughly 130 MB of memory)
 Factor Ops : 1.109e+09 (less than 1 second per iteration)
 Threads    : 4

                  Objective                Residual
Iter       Primal          Dual         Primal    Dual     Compl     Time
   0   3.27664883e+08 -1.59577782e+08  3.80e+04 9.88e+02  9.71e+05   105s
   1   1.79043115e+08  3.99121352e+08  2.49e+04 6.46e+02  6.42e+05   105s
   2   1.74702796e+08 -1.51292592e+09  2.44e+04 6.35e+02  6.36e+05   105s
   3   1.36764468e+08 -1.48292133e+09  2.04e+04 5.30e+02  5.54e+05   105s
   4   1.40610856e+07 -5.26062250e+09  2.87e+03 7.46e+01  1.32e+05   105s
   5   1.25538092e+06 -2.00054770e+09  1.95e+02 5.06e+00  1.81e+04   106s
   6   5.59884499e+05 -4.87135242e+08  3.30e+01 8.59e-01  3.66e+03   106s
   7   5.16390579e+05 -3.56500998e+08  2.29e+01 5.95e-01  2.59e+03   106s
   8   4.85299090e+05 -2.87502292e+08  1.52e+01 3.95e-01  2.03e+03   106s
   9   4.62579606e+05 -2.28990121e+08  9.47e+00 2.46e-01  1.58e+03   106s
  10   4.51504394e+05 -2.01620061e+08  6.55e+00 1.70e-01  1.38e+03   106s
  11   4.49947077e+05 -1.92596742e+08  6.14e+00 1.60e-01  1.33e+03   106s
  12   4.49327784e+05 -1.87641400e+08  5.99e+00 1.56e-01  1.30e+03   106s
  13   4.48315717e+05 -1.76916974e+08  5.72e+00 1.49e-01  1.27e+03   107s
  14   4.47023095e+05 -1.62450125e+08  5.39e+00 1.40e-01  1.19e+03   107s
  15   4.45952675e+05 -1.43730089e+08  5.09e+00 1.32e-01  1.13e+03   107s
  16   4.42290406e+05 -1.30629199e+08  4.11e+00 1.07e-01  9.94e+02   107s
  17   4.34294531e+05 -8.87665604e+07  2.09e+00 5.42e-02  6.27e+02   107s
  18   4.30076253e+05 -5.65814856e+07  1.02e+00 2.64e-02  3.86e+02   107s
  19   4.28444742e+05 -3.98258950e+07  6.26e-01 1.63e-02  2.67e+02   107s
  20   4.27121523e+05 -2.51324062e+07  2.96e-01 7.69e-03  1.66e+02   108s
  21   4.25697769e+05 -4.74379575e+06  3.08e-02 8.01e-04  3.29e+01   108s
  22   4.23825440e+05 -1.07122841e+05  3.06e-03 7.95e-05  3.37e+00   108s
  23   4.11338597e+05  1.29779409e+05  7.15e-04 1.86e-05  1.79e+00   108s
  24   4.03931845e+05  2.45793585e+05  1.91e-04 4.96e-06  1.00e+00   108s
  25   3.99218678e+05  3.03174213e+05  9.30e-05 2.42e-06  6.09e-01   108s
  26   3.96235540e+05  3.29636139e+05  5.50e-05 1.43e-06  4.23e-01   108s
  27   3.93904463e+05  3.47580860e+05  2.76e-05 7.17e-07  2.94e-01   108s
  28   3.93097344e+05  3.52422148e+05  1.63e-05 4.24e-07  2.58e-01   109s
  29   3.91144518e+05  3.65736282e+05  7.98e-06 2.20e-07  1.61e-01   109s
  30   3.90079924e+05  3.72367654e+05  4.38e-06 2.11e-07  1.12e-01   109s
  31   3.89464617e+05  3.75980935e+05  2.61e-06 1.89e-07  8.55e-02   109s
  32   3.89152632e+05  3.77713814e+05  2.04e-06 2.00e-07  7.26e-02   109s
  33   3.88969629e+05  3.78677678e+05  1.71e-06 2.36e-07  6.53e-02   109s
  34   3.88640187e+05  3.80402360e+05  1.18e-06 2.80e-07  5.23e-02   109s
  35   3.88317010e+05  3.81999451e+05  8.28e-07 3.26e-07  4.01e-02   110s
  36   3.88087922e+05  3.83112951e+05  4.29e-07 3.49e-07  3.16e-02   110s
  37   3.87892038e+05  3.84033580e+05  2.98e-07 3.12e-07  2.45e-02   110s
  38   3.87728446e+05  3.84791705e+05  1.80e-07 2.59e-07  1.86e-02   110s
  39   3.87509337e+05  3.85751586e+05  8.39e-08 3.09e-07  1.12e-02   110s
  40   3.87383605e+05  3.86295383e+05  3.49e-08 2.40e-07  6.90e-03   110s
  41   3.87275697e+05  3.86750423e+05  4.47e-09 3.07e-08  3.33e-03   110s
  42   3.87253576e+05  3.86839247e+05  3.16e-09 2.17e-08  2.63e-03   111s
  43   3.87242432e+05  3.86881590e+05  2.47e-09 1.69e-08  2.29e-03   111s
  44   3.87234238e+05  3.86913973e+05  2.02e-09 1.39e-08  2.03e-03   111s
  45   3.87232362e+05  3.86922100e+05  1.91e-09 1.31e-08  1.97e-03   111s
  46   3.87191647e+05  3.87083874e+05  1.89e-10 1.29e-09  6.84e-04   111s
  47   3.87185736e+05  3.87107127e+05  1.36e-10 9.34e-10  4.99e-04   112s
  48   3.87176557e+05  3.87143085e+05  7.11e-14 9.91e-11  2.12e-04   112s
  49   3.87172136e+05  3.87160503e+05  5.68e-14 1.59e-11  7.38e-05   112s
  50   3.87170030e+05  3.87168734e+05  9.06e-14 1.20e-10  8.22e-06   112s
  51   3.87169907e+05  3.87169214e+05  6.92e-13 2.00e-11  4.40e-06   112s
  52   3.87169827e+05  3.87169526e+05  2.13e-13 6.10e-10  1.91e-06   113s
  53   3.87169775e+05  3.87169729e+05  1.37e-12 7.51e-10  2.90e-07   113s
  54   3.87169766e+05  3.87169765e+05  6.57e-13 1.77e-09  5.09e-09   113s

Barrier solved model in 54 iterations and 113.12 seconds (129.62 work units)
Optimal objective 3.87169766e+05

